p cnf 163 631
34 72 0
32 47 70 115 119 0
56 60 65 73 0
37 129 0
58 86 88 0
43 51 81 92 0
89 127 0
71 93 142 0
80 144 0
23 63 0
67 79 101 0
33 105 107 0
52 61 118 0
30 64 121 162 0
26 85 0
41 57 78 0
25 76 0
21 22 24 29 0
83 91 0
38 45 49 95 0
48 112 0
54 74 0
40 46 50 97 159 0
68 99 100 102 0
35 103 104 106 0
108 110 111 0
53 69 116 120 0
44 90 123 124 0
126 130 132 135 0
94 137 139 0
55 113 117 0
31 62 66 75 140 0
27 28 141 0
82 143 0
145 146 147 0
150 151 153 154 0
77 155 0
-34 -47 0
-34 -92 0
-34 -157 0
-47 -92 0
-47 -157 0
-92 -157 0
-127 -131 0
-127 -158 0
-127 -160 0
-131 -158 0
-131 -160 0
-158 -160 0
-97 -99 0
-97 -126 0
-97 -137 0
-99 -126 0
-99 -137 0
-126 -137 0
-75 -113 0
-113 -150 0
-77 -113 0
-75 -150 0
-75 -77 0
-77 -150 0
-34 -127 0
-34 -97 0
-34 -113 0
-97 -127 0
-113 -127 0
-97 -113 0
-47 -131 0
-47 -99 0
-47 -75 0
-99 -131 0
-75 -131 0
-75 -99 0
-92 -158 0
-92 -126 0
-92 -150 0
-126 -158 0
-150 -158 0
-126 -150 0
-157 -160 0
-137 -157 0
-77 -157 0
-137 -160 0
-77 -160 0
-77 -137 0
-56 -115 0
-115 -122 0
-81 -115 0
-56 -122 0
-56 -81 0
-81 -122 0
-93 -134 0
-134 -144 0
-84 -134 0
-93 -144 0
-84 -93 0
-84 -144 0
-105 -161 0
-52 -105 0
-41 -105 0
-52 -161 0
-41 -161 0
-41 -52 0
-28 -62 0
-62 -128 0
-62 -151 0
-28 -128 0
-28 -151 0
-128 -151 0
-115 -134 0
-105 -115 0
-62 -115 0
-105 -134 0
-62 -134 0
-62 -105 0
-56 -93 0
-56 -161 0
-28 -56 0
-93 -161 0
-28 -93 0
-28 -161 0
-122 -144 0
-52 -122 0
-122 -128 0
-52 -144 0
-128 -144 0
-52 -128 0
-81 -84 0
-41 -81 0
-81 -151 0
-41 -84 0
-84 -151 0
-41 -151 0
-60 -70 0
-70 -163 0
-70 -129 0
-58 -70 0
-70 -149 0
-60 -163 0
-60 -129 0
-58 -60 0
-60 -149 0
-129 -163 0
-58 -163 0
-149 -163 0
-58 -129 0
-129 -149 0
-58 -149 0
-20 -142 0
-20 -80 0
-20 -152 0
-20 -63 0
-20 -39 0
-80 -142 0
-142 -152 0
-63 -142 0
-39 -142 0
-80 -152 0
-63 -80 0
-39 -80 0
-63 -152 0
-39 -152 0
-39 -63 0
-33 -109 0
-33 -118 0
-33 -64 0
-33 -36 0
-33 -87 0
-109 -118 0
-64 -109 0
-36 -109 0
-87 -109 0
-64 -118 0
-36 -118 0
-87 -118 0
-36 -64 0
-64 -87 0
-36 -87 0
-25 -29 0
-25 -83 0
-25 -49 0
-18 -25 0
-25 -54 0
-29 -83 0
-29 -49 0
-18 -29 0
-29 -54 0
-49 -83 0
-18 -83 0
-54 -83 0
-18 -49 0
-49 -54 0
-18 -54 0
-100 -103 0
-100 -108 0
-100 -116 0
-100 -123 0
-100 -139 0
-103 -108 0
-103 -116 0
-103 -123 0
-103 -139 0
-108 -116 0
-108 -123 0
-108 -139 0
-116 -123 0
-116 -139 0
-123 -139 0
-66 -141 0
-17 -66 0
-66 -133 0
-66 -145 0
-66 -155 0
-17 -141 0
-133 -141 0
-141 -145 0
-141 -155 0
-17 -133 0
-17 -145 0
-17 -155 0
-133 -145 0
-133 -155 0
-145 -155 0
-20 -70 0
-33 -70 0
-25 -70 0
-70 -100 0
-66 -70 0
-20 -33 0
-20 -25 0
-20 -100 0
-20 -66 0
-25 -33 0
-33 -100 0
-33 -66 0
-25 -100 0
-25 -66 0
-66 -100 0
-60 -142 0
-60 -109 0
-29 -60 0
-60 -103 0
-60 -141 0
-109 -142 0
-29 -142 0
-103 -142 0
-141 -142 0
-29 -109 0
-103 -109 0
-109 -141 0
-29 -103 0
-29 -141 0
-103 -141 0
-80 -163 0
-118 -163 0
-83 -163 0
-108 -163 0
-17 -163 0
-80 -118 0
-80 -83 0
-80 -108 0
-17 -80 0
-83 -118 0
-108 -118 0
-17 -118 0
-83 -108 0
-17 -83 0
-17 -108 0
-129 -152 0
-64 -129 0
-49 -129 0
-116 -129 0
-129 -133 0
-64 -152 0
-49 -152 0
-116 -152 0
-133 -152 0
-49 -64 0
-64 -116 0
-64 -133 0
-49 -116 0
-49 -133 0
-116 -133 0
-58 -63 0
-36 -58 0
-18 -58 0
-58 -123 0
-58 -145 0
-36 -63 0
-18 -63 0
-63 -123 0
-63 -145 0
-18 -36 0
-36 -123 0
-36 -145 0
-18 -123 0
-18 -145 0
-123 -145 0
-39 -149 0
-87 -149 0
-54 -149 0
-139 -149 0
-149 -155 0
-39 -87 0
-39 -54 0
-39 -139 0
-39 -155 0
-54 -87 0
-87 -139 0
-87 -155 0
-54 -139 0
-54 -155 0
-139 -155 0
-30 -101 0
-26 -101 0
-78 -101 0
-26 -30 0
-30 -78 0
-26 -78 0
-16 -45 0
-15 -16 0
-16 -48 0
-15 -45 0
-45 -48 0
-15 -48 0
-50 -69 0
-50 -59 0
-50 -130 0
-59 -69 0
-69 -130 0
-59 -130 0
-19 -117 0
-117 -143 0
-117 -153 0
-19 -143 0
-19 -153 0
-143 -153 0
-16 -101 0
-50 -101 0
-101 -117 0
-16 -50 0
-16 -117 0
-50 -117 0
-30 -45 0
-30 -69 0
-19 -30 0
-45 -69 0
-19 -45 0
-19 -69 0
-15 -26 0
-26 -59 0
-26 -143 0
-15 -59 0
-15 -143 0
-59 -143 0
-48 -78 0
-78 -130 0
-78 -153 0
-48 -130 0
-48 -153 0
-130 -153 0
-72 -73 0
-72 -86 0
-51 -72 0
-14 -72 0
-73 -86 0
-51 -73 0
-14 -73 0
-51 -86 0
-14 -86 0
-14 -51 0
-71 -89 0
-23 -89 0
-89 -96 0
-89 -98 0
-23 -71 0
-71 -96 0
-71 -98 0
-23 -96 0
-23 -98 0
-96 -98 0
-13 -67 0
-67 -136 0
-57 -67 0
-12 -67 0
-13 -136 0
-13 -57 0
-12 -13 0
-57 -136 0
-12 -136 0
-12 -57 0
-24 -42 0
-11 -42 0
-42 -112 0
-42 -74 0
-11 -24 0
-24 -112 0
-24 -74 0
-11 -112 0
-11 -74 0
-74 -112 0
-35 -46 0
-46 -124 0
-46 -132 0
-46 -94 0
-35 -124 0
-35 -132 0
-35 -94 0
-124 -132 0
-94 -124 0
-94 -132 0
-72 -89 0
-67 -72 0
-42 -72 0
-46 -72 0
-67 -89 0
-42 -89 0
-46 -89 0
-42 -67 0
-46 -67 0
-42 -46 0
-71 -73 0
-13 -73 0
-24 -73 0
-35 -73 0
-13 -71 0
-24 -71 0
-35 -71 0
-13 -24 0
-13 -35 0
-24 -35 0
-23 -86 0
-86 -136 0
-11 -86 0
-86 -124 0
-23 -136 0
-11 -23 0
-23 -124 0
-11 -136 0
-124 -136 0
-11 -124 0
-51 -96 0
-51 -57 0
-51 -112 0
-51 -132 0
-57 -96 0
-96 -112 0
-96 -132 0
-57 -112 0
-57 -132 0
-112 -132 0
-14 -98 0
-12 -14 0
-14 -74 0
-14 -94 0
-12 -98 0
-74 -98 0
-94 -98 0
-12 -74 0
-12 -94 0
-74 -94 0
-22 -156 0
-104 -159 0
-156 -159 0
-22 -104 0
-65 -119 0
-37 -119 0
-10 -119 0
-88 -119 0
-37 -65 0
-10 -65 0
-65 -88 0
-10 -37 0
-37 -88 0
-10 -88 0
-107 -114 0
-107 -121 0
-85 -107 0
-107 -138 0
-114 -121 0
-85 -114 0
-114 -138 0
-85 -121 0
-121 -138 0
-85 -138 0
-21 -76 0
-38 -76 0
-9 -76 0
-8 -76 0
-21 -38 0
-9 -21 0
-8 -21 0
-9 -38 0
-8 -38 0
-8 -9 0
-68 -106 0
-53 -68 0
-7 -68 0
-44 -68 0
-53 -106 0
-7 -106 0
-44 -106 0
-7 -53 0
-44 -53 0
-7 -44 0
-27 -31 0
-6 -31 0
-31 -82 0
-31 -146 0
-6 -27 0
-27 -82 0
-27 -146 0
-6 -82 0
-6 -146 0
-82 -146 0
-107 -119 0
-76 -119 0
-68 -119 0
-31 -119 0
-76 -107 0
-68 -107 0
-31 -107 0
-68 -76 0
-31 -76 0
-31 -68 0
-65 -114 0
-21 -65 0
-65 -106 0
-27 -65 0
-21 -114 0
-106 -114 0
-27 -114 0
-21 -106 0
-21 -27 0
-27 -106 0
-37 -121 0
-37 -38 0
-37 -53 0
-6 -37 0
-38 -121 0
-53 -121 0
-6 -121 0
-38 -53 0
-6 -38 0
-6 -53 0
-10 -85 0
-9 -10 0
-7 -10 0
-10 -82 0
-9 -85 0
-7 -85 0
-82 -85 0
-7 -9 0
-9 -82 0
-7 -82 0
-88 -138 0
-8 -88 0
-44 -88 0
-88 -146 0
-8 -138 0
-44 -138 0
-138 -146 0
-8 -44 0
-8 -146 0
-44 -146 0
-61 -79 0
-79 -162 0
-5 -79 0
-61 -162 0
-5 -61 0
-5 -162 0
-91 -148 0
-95 -148 0
-4 -148 0
-91 -95 0
-4 -91 0
-4 -95 0
-40 -110 0
-40 -120 0
-40 -90 0
-110 -120 0
-90 -110 0
-90 -120 0
-3 -55 0
-2 -55 0
-55 -147 0
-2 -3 0
-3 -147 0
-2 -147 0
-79 -148 0
-40 -79 0
-55 -79 0
-40 -148 0
-55 -148 0
-40 -55 0
-61 -91 0
-61 -110 0
-3 -61 0
-91 -110 0
-3 -91 0
-3 -110 0
-95 -162 0
-120 -162 0
-2 -162 0
-95 -120 0
-2 -95 0
-2 -120 0
-4 -5 0
-5 -90 0
-5 -147 0
-4 -90 0
-4 -147 0
-90 -147 0
-32 -125 0
-32 -43 0
-43 -125 0
-102 -111 0
-102 -135 0
-111 -135 0
-1 -140 0
-140 -154 0
-1 -154 0
-32 -102 0
-32 -140 0
-102 -140 0
-111 -125 0
-1 -125 0
-1 -111 0
-43 -135 0
-43 -154 0
-135 -154 0
